
;this file is automatically generated: Wed Feb 26 14:38:42 CST 2020

;declarations generated

(declare-fun oclExcludes ( Int Int) Bool)
(declare-fun Cardinality ( Int) Int)
(declare-fun type_fc620b9d_ddbe_4203_94b4_f1a8cb136aaf_Class16 ( Int) Bool)
(declare-fun oclSelect ( Int Bool) Int)
(declare-fun Enum0 ( Int) Int)
(declare-fun Enum1 ( Int) Int)
(declare-fun container_ ( Int) Int)
(declare-fun oclIncludes ( Int Int) Bool)
(declare-fun obj_6f7b0f32_e40e_450f_b291_d8ea2fe6ea38 ( Int) Int)
(declare-fun ObjAt ( Int Int) Int)

;formula(s) generated
(assert (forall ((p Int)) (=> ( type_fc620b9d_ddbe_4203_94b4_f1a8cb136aaf_Class16 p )  (and (>= ( Enum1 ( obj_6f7b0f32_e40e_450f_b291_d8ea2fe6ea38 p )  )  0) (<= ( Enum1 ( obj_6f7b0f32_e40e_450f_b291_d8ea2fe6ea38 p )  )  6)))))
(assert (! (forall ((v Int)) (=> ( type_fc620b9d_ddbe_4203_94b4_f1a8cb136aaf_Class16 v )  (= ( Enum1 ( obj_6f7b0f32_e40e_450f_b291_d8ea2fe6ea38 v )  )  0))):named l0))
(assert (exists ((o Int)) ( type_fc620b9d_ddbe_4203_94b4_f1a8cb136aaf_Class16 ( obj_6f7b0f32_e40e_450f_b291_d8ea2fe6ea38 o )  ) ))

 ;end of formula 